
Gurobi 11.0.1 (win64) logging started Thu May 16 19:22:39 2024

Set parameter LogFile to value "output/solver_log19.txt"
Gurobi Optimizer version 11.0.1 build v11.0.1rc0 (win64 - Windows 11.0 (22631.2))

CPU model: 11th Gen Intel(R) Core(TM) i7-1165G7 @ 2.80GHz, instruction set [SSE2|AVX|AVX2|AVX512]
Thread count: 4 physical cores, 8 logical processors, using up to 8 threads

Optimize a model with 5471 rows, 1389 columns and 101077 nonzeros
Model fingerprint: 0x5f2bfd5f
Variable types: 568 continuous, 821 integer (821 binary)
Coefficient statistics:
  Matrix range     [4e-01, 1e+05]
  Objective range  [1e+00, 1e+02]
  Bounds range     [1e+00, 1e+00]
  RHS range        [1e-02, 1e+05]

User MIP start produced solution with objective 93898.2 (0.01s)
User MIP start produced solution with objective 93898.2 (0.01s)
Loaded user MIP start with objective 93898.2

Presolve removed 959 rows and 509 columns
Presolve time: 0.13s
Presolved: 4512 rows, 880 columns, 85631 nonzeros
Variable types: 527 continuous, 353 integer (351 binary)

Root relaxation: objective 9.439651e+04, 1193 iterations, 0.10 seconds (0.14 work units)

    Nodes    |    Current Node    |     Objective Bounds      |     Work
 Expl Unexpl |  Obj  Depth IntInf | Incumbent    BestBd   Gap | It/Node Time

     0     0 94396.5063    0   11 93898.2197 94396.5063  0.53%     -    0s
     0     0 94396.5048    0   11 93898.2197 94396.5048  0.53%     -    0s
     0     0 93961.4521    0    9 93898.2197 93961.4521  0.07%     -    0s
     0     0 93961.4521    0    5 93898.2197 93961.4521  0.07%     -    0s
     0     0 93961.4521    0    5 93898.2197 93961.4521  0.07%     -    0s
     0     0 93961.4521    0    1 93898.2197 93961.4521  0.07%     -    0s
     0     0 93961.4521    0    2 93898.2197 93961.4521  0.07%     -    1s
     0     0 93961.4520    0    2 93898.2197 93961.4520  0.07%     -    1s
     0     2 93961.4520    0    2 93898.2197 93961.4520  0.07%     -    1s

Cutting planes:
  MIR: 1

Explored 5 nodes (2820 simplex iterations) in 1.68 seconds (1.60 work units)
Thread count was 8 (of 8 available processors)

Solution count 2: 93898.2 93898.2 

Optimal solution found (tolerance 1.00e-04)
Best objective 9.389821968715e+04, best bound 9.390280772689e+04, gap 0.0049%
